data/solutions/recovery/wellformed/moderate/flexible/wellformed_moderate_instance64/22.sol
Elapsed time: 100.03
Upper bound: 4862.0
Planning weighted value: 157594.0
C[0]=4862.0
C[1]=4862.0
C[2]=4861.0
C[3]=4859.0
C[4]=0.0
y[0]=0
y[1]=3
y[2]=2
y[3]=3
y[4]=3
y[5]=0
y[6]=2
y[7]=2
y[8]=1
y[9]=2
y[10]=2
y[11]=1
y[12]=2
y[13]=2
y[14]=0
y[15]=2
y[16]=1
y[17]=0
y[18]=0
y[19]=3
y[20]=1
y[21]=2
y[22]=1
y[23]=1
y[24]=3
y[25]=1
y[26]=1
y[27]=0
y[28]=0
y[29]=0
y[30]=1
y[31]=2
y[32]=1
y[33]=1
y[34]=2
y[35]=0
y[36]=1
y[37]=0
y[38]=0
y[39]=1
y[40]=3
