data/solutions/recovery/wellformed/moderate/flexible/wellformed_moderate_instance64/22.log

Log started (V12.6.3.0) Fri Apr 20 20:07:21 2018

New value for default parallel thread count: 1

Problem '/tmp/tmpLUvqoo.pyomo.lp' read.
Read time = 0.00 sec. (0.09 ticks)

Problem name         : /tmp/tmpLUvqoo.pyomo.lp
Objective sense      : Minimize
Variables            :     212  [Nneg: 1,  Binary: 205,  General Integer: 6]
Objective nonzeros   :       1
Linear constraints   :      94  [Less: 46,  Equal: 48]
  Nonzeros           :    5859
  RHS nonzeros       :      83

Variables            : Min LB: 0.000000         Max UB: 1.000000       
Objective nonzeros   : Min   : 1.000000         Max   : 1.000000       
Linear constraints   :
  Nonzeros           : Min   : 1.000000         Max   : 1963.000       
  RHS nonzeros       : Min   : 1.000000         Max   : 5.000000       
Tried aggregator 2 times.
MIP Presolve eliminated 46 rows and 57 columns.
Aggregator did 6 substitutions.
Reduced MIP has 42 rows, 149 columns, and 393 nonzeros.
Reduced MIP has 148 binaries, 1 generals, 0 SOSs, and 0 indicators.
Presolve time = 0.00 sec. (1.44 ticks)
Found incumbent of value 19444.000000 after 0.00 sec. (1.75 ticks)
Probing time = 0.00 sec. (0.12 ticks)
Cover probing fixed 0 vars, tightened 6 bounds.
Tried aggregator 1 time.
Reduced MIP has 42 rows, 149 columns, and 393 nonzeros.
Reduced MIP has 148 binaries, 1 generals, 0 SOSs, and 0 indicators.
Presolve time = 0.00 sec. (0.27 ticks)
Probing time = 0.00 sec. (0.08 ticks)
Clique table members: 37.
MIP emphasis: balance optimality and feasibility.
MIP search method: dynamic search.
Parallel mode: none, using 1 thread.
Root relaxation solution time = 0.00 sec. (0.15 ticks)

        Nodes                                         Cuts/
   Node  Left     Objective  IInf  Best Integer    Best Bound    ItCnt     Gap

*     0+    0                        19444.0000     1963.0000            89.90%
      0     0     4861.0000     6    19444.0000     4861.0000       14   75.00%
*     0+    0                         5259.0000     4861.0000             7.57%
      0     0     4861.0000     8     5259.0000      Fract: 3       19    7.57%
*     0+    0                         5247.0000     4861.0000             7.36%
      0     0     4861.0000     8     5247.0000       Cuts: 4       27    7.36%
*     0+    0                         5002.0000     4861.0000             2.82%
*     0+    0                         4981.0000     4861.0000             2.41%
      0     2     4861.0000     8     4981.0000     4861.0000       27    2.41%
Elapsed time = 0.01 sec. (5.60 ticks, tree = 0.01 MB, solutions = 5)
*    30+   21                         4969.0000     4861.0000             2.17%
*    57    28      integral     0     4894.0000     4861.0000      208    0.67%
*   290    72      integral     0     4888.0000     4861.0000      783    0.55%
*   943   114      integral     0     4886.0000     4861.0000     2004    0.51%
*  1160+  191                         4877.0000     4861.0000             0.33%
*  2826+  245                         4871.0000     4861.0000             0.21%
*  2826+  229                         4870.0000     4861.0000             0.18%
*  2926+  264                         4865.0000     4861.0000             0.08%
   3026   329     4861.0000     6     4865.0000     4861.0000     5753    0.08%
   3027   330     4861.0000     4     4865.0000     4861.0000     5754    0.08%
   3028   331     4861.0000     6     4865.0000     4861.0000     5755    0.08%
   3029   332     4861.0000     6     4865.0000     4861.0000     5756    0.08%
   3030   333     4861.0000     6     4865.0000     4861.0000     5759    0.08%
   3031   334     4861.0000     6     4865.0000     4861.0000     5760    0.08%
   3032   335     4861.0000     8     4865.0000     4861.0000     5763    0.08%
   3033   336     4861.0000     6     4865.0000     4861.0000     5764    0.08%
   3034   337     4861.0000     6     4865.0000     4861.0000     5765    0.08%
*  4010   709      integral     0     4864.0000     4861.0000     7496    0.06%
*  5126+ 1014                         4863.0000     4861.0000             0.04%
   9737  2925     4861.0000     6     4863.0000     4861.0000    17326    0.04%
Elapsed time = 1.21 sec. (959.29 ticks, tree = 0.83 MB, solutions = 15)
* 12390  3785      integral     0     4862.0000     4861.0000    21756    0.02%
  24191  5532     4861.0000     4     4862.0000     4861.0000    40961    0.02%
  24192  5533     4861.0000     8     4862.0000     4861.0000    40964    0.02%
  24193  5534     4861.0000     8     4862.0000     4861.0000    40965    0.02%
  24194  5533    infeasible           4862.0000     4861.0000    40966    0.02%
  24195  5534     4861.0000     8     4862.0000     4861.0000    40967    0.02%
  24196  5535     4861.0000     8     4862.0000     4861.0000    40969    0.02%
  24197  5536     4861.0000     6     4862.0000     4861.0000    40970    0.02%
  24198  5537     4861.0000     6     4862.0000     4861.0000    40971    0.02%
  24199  5536    infeasible           4862.0000     4861.0000    40972    0.02%
  24200  5537     4861.0000     6     4862.0000     4861.0000    40973    0.02%
Elapsed time = 2.49 sec. (1913.67 ticks, tree = 1.61 MB, solutions = 16)
  42590  5704    infeasible           4862.0000     4861.0000    68553    0.02%
  42591  5703    infeasible           4862.0000     4861.0000    68553    0.02%
  42592  5702    infeasible           4862.0000     4861.0000    68556    0.02%
  42593  5701    infeasible           4862.0000     4861.0000    68559    0.02%
  42594  5700    infeasible           4862.0000     4861.0000    68559    0.02%
  42595  5701     4861.0000     6     4862.0000     4861.0000    68560    0.02%
  42596  5702     4861.0000     6     4862.0000     4861.0000    68561    0.02%
  42597  5701    infeasible           4862.0000     4861.0000    68564    0.02%
  42598  5700    infeasible           4862.0000     4861.0000    68566    0.02%
  42599  5699    infeasible           4862.0000     4861.0000    68567    0.02%
Elapsed time = 3.71 sec. (2867.83 ticks, tree = 1.67 MB, solutions = 16)
  58825  7003    infeasible           4862.0000     4861.0000    95553    0.02%
  58826  7002    infeasible           4862.0000     4861.0000    95554    0.02%
  58827  7001    infeasible           4862.0000     4861.0000    95556    0.02%
  58828  7000    infeasible           4862.0000     4861.0000    95558    0.02%
  58829  6999    infeasible           4862.0000     4861.0000    95561    0.02%
  58830  7000     4861.0000     6     4862.0000     4861.0000    95563    0.02%
  58831  7001     4861.0000     6     4862.0000     4861.0000    95564    0.02%
  58832  7002     4861.0000     6     4862.0000     4861.0000    95566    0.02%
  58833  7003     4861.0000     6     4862.0000     4861.0000    95567    0.02%
  58834  7004     4861.0000     6     4862.0000     4861.0000    95568    0.02%
Elapsed time = 4.94 sec. (3822.37 ticks, tree = 2.02 MB, solutions = 16)
  73574  7573     4861.0000     6     4862.0000     4861.0000   122078    0.02%
  73575  7574     4861.0000     6     4862.0000     4861.0000   122079    0.02%
  73576  7575     4861.0000     6     4862.0000     4861.0000   122080    0.02%
  73577  7576     4861.0000     6     4862.0000     4861.0000   122081    0.02%
  73578  7575    infeasible           4862.0000     4861.0000   122084    0.02%
  73579  7574    infeasible           4862.0000     4861.0000   122085    0.02%
  73580  7573    infeasible           4862.0000     4861.0000   122088    0.02%
  73581  7572    infeasible           4862.0000     4861.0000   122090    0.02%
  73582  7571    infeasible           4862.0000     4861.0000   122091    0.02%
  73583  7570    infeasible           4862.0000     4861.0000   122092    0.02%
Elapsed time = 6.18 sec. (4776.77 ticks, tree = 2.18 MB, solutions = 16)
  90871  7833     4861.0000     6     4862.0000     4861.0000   147797    0.02%
  90872  7833     4861.0000     7     4862.0000     4861.0000   147800    0.02%
  90873  7834     4861.0000     6     4862.0000     4861.0000   147802    0.02%
  90874  7835     4861.0000     5     4862.0000     4861.0000   147803    0.02%
  90875  7836     4861.0000     5     4862.0000     4861.0000   147804    0.02%
  90876  7835    infeasible           4862.0000     4861.0000   147806    0.02%
  90877  7834    infeasible           4862.0000     4861.0000   147807    0.02%
  90878  7833    infeasible           4862.0000     4861.0000   147808    0.02%
  90879  7833     4861.0000     7     4862.0000     4861.0000   147811    0.02%
  90880  7834     4861.0000     5     4862.0000     4861.0000   147812    0.02%
Elapsed time = 7.39 sec. (5731.01 ticks, tree = 2.25 MB, solutions = 16)
 108709  8101     4861.0000     8     4862.0000     4861.0000   171803    0.02%
 108710  8102     4861.0000     6     4862.0000     4861.0000   171804    0.02%
 108711  8103     4861.0000     6     4862.0000     4861.0000   171805    0.02%
 108712  8102    infeasible           4862.0000     4861.0000   171807    0.02%
 108713  8103     4861.0000     6     4862.0000     4861.0000   171809    0.02%
 108714  8103     4861.0000     6     4862.0000     4861.0000   171810    0.02%
 108715  8102    infeasible           4862.0000     4861.0000   171812    0.02%
 108716  8102     4861.0000     7     4862.0000     4861.0000   171814    0.02%
 108717  8103     4861.0000     6     4862.0000     4861.0000   171816    0.02%
 108718  8104     4861.0000     6     4862.0000     4861.0000   171817    0.02%
Elapsed time = 8.63 sec. (6685.15 ticks, tree = 2.32 MB, solutions = 16)
 125881 10562     4861.0000     5     4862.0000     4861.0000   199455    0.02%
 125882 10563     4861.0000     5     4862.0000     4861.0000   199456    0.02%
 125883 10564     4861.0000     5     4862.0000     4861.0000   199457    0.02%
 125884 10565     4861.0000     5     4862.0000     4861.0000   199458    0.02%
 125885 10566     4861.0000     5     4862.0000     4861.0000   199459    0.02%
 125886 10567     4861.0000     5     4862.0000     4861.0000   199460    0.02%
 125887 10566    infeasible           4862.0000     4861.0000   199462    0.02%
 125888 10565    infeasible           4862.0000     4861.0000   199463    0.02%
 125889 10566     4861.0000     6     4862.0000     4861.0000   199466    0.02%
 125890 10567     4861.0000     5     4862.0000     4861.0000   199469    0.02%
Elapsed time = 9.85 sec. (7639.22 ticks, tree = 3.19 MB, solutions = 16)
 142694 12479    infeasible           4862.0000     4861.0000   225761    0.02%
 142695 12478    infeasible           4862.0000     4861.0000   225762    0.02%
 142696 12477    infeasible           4862.0000     4861.0000   225762    0.02%
 142697 12476    infeasible           4862.0000     4861.0000   225763    0.02%
 142698 12475    infeasible           4862.0000     4861.0000   225763    0.02%
 142699 12474    infeasible           4862.0000     4861.0000   225765    0.02%
 142700 12473    infeasible           4862.0000     4861.0000   225767    0.02%
 142701 12472    infeasible           4862.0000     4861.0000   225767    0.02%
 142702 12471    infeasible           4862.0000     4861.0000   225768    0.02%
 142703 12470    infeasible           4862.0000     4861.0000   225768    0.02%
Elapsed time = 11.08 sec. (8593.35 ticks, tree = 3.70 MB, solutions = 16)
 159363 12783    infeasible           4862.0000     4861.0000   251103    0.02%
 159364 12782    infeasible           4862.0000     4861.0000   251103    0.02%
 159365 12781    infeasible           4862.0000     4861.0000   251103    0.02%
 159366 12780    infeasible           4862.0000     4861.0000   251105    0.02%
 159367 12779    infeasible           4862.0000     4861.0000   251106    0.02%
 159368 12778    infeasible           4862.0000     4861.0000   251106    0.02%
 159369 12779     4861.0000     5     4862.0000     4861.0000   251107    0.02%
 159370 12780     4861.0000     6     4862.0000     4861.0000   251108    0.02%
 159371 12781     4861.0000     6     4862.0000     4861.0000   251110    0.02%
 208691 13695    infeasible           4862.0000     4861.0000   330802    0.02%
Elapsed time = 15.97 sec. (12408.05 ticks, tree = 4.04 MB, solutions = 16)
 274926 14937    infeasible           4862.0000     4861.0000   439329    0.02%
 274927 14938     4861.0000     5     4862.0000     4861.0000   439330    0.02%
 274928 14939     4861.0000     5     4862.0000     4861.0000   439331    0.02%
 274929 14940     4861.0000     5     4862.0000     4861.0000   439332    0.02%
 274930 14941     4861.0000     5     4862.0000     4861.0000   439333    0.02%
 274931 14942     4861.0000     5     4862.0000     4861.0000   439334    0.02%
 274932 14943     4861.0000     5     4862.0000     4861.0000   439335    0.02%
 274933 14944     4861.0000     6     4862.0000     4861.0000   439340    0.02%
 274934 14944     4861.0000     5     4862.0000     4861.0000   439343    0.02%
 274935 14943    infeasible           4862.0000     4861.0000   439345    0.02%
Elapsed time = 20.86 sec. (16223.52 ticks, tree = 4.39 MB, solutions = 16)
 336996 19822     4861.0000     5     4862.0000     4861.0000   538891    0.02%
 336997 19822     4861.0000     7     4862.0000     4861.0000   538892    0.02%
 336998 19823     4861.0000     8     4862.0000     4861.0000   538897    0.02%
 336999 19824     4861.0000     8     4862.0000     4861.0000   538898    0.02%
 337000 19825     4861.0000     7     4862.0000     4861.0000   538899    0.02%
 337001 19824    infeasible           4862.0000     4861.0000   538900    0.02%
 337002 19823    infeasible           4862.0000     4861.0000   538900    0.02%
 337003 19822    infeasible           4862.0000     4861.0000   538906    0.02%
 337004 19821    infeasible           4862.0000     4861.0000   538915    0.02%
 337005 19820    infeasible           4862.0000     4861.0000   538923    0.02%
Elapsed time = 25.69 sec. (20038.71 ticks, tree = 6.20 MB, solutions = 16)
 401051 21887    infeasible           4862.0000     4861.0000   641899    0.02%
 401052 21886    infeasible           4862.0000     4861.0000   641900    0.02%
 401053 21887     4861.0000     6     4862.0000     4861.0000   641901    0.02%
 401054 21887     4861.0000     8     4862.0000     4861.0000   641904    0.02%
 401055 21888     4861.0000     6     4862.0000     4861.0000   641905    0.02%
 401056 21887    infeasible           4862.0000     4861.0000   641905    0.02%
 401057 21888     4861.0000     6     4862.0000     4861.0000   641906    0.02%
 401058 21887    infeasible           4862.0000     4861.0000   641907    0.02%
 401059 21886    infeasible           4862.0000     4861.0000   641908    0.02%
 401060 21885    infeasible           4862.0000     4861.0000   641908    0.02%
Elapsed time = 30.59 sec. (23853.98 ticks, tree = 6.75 MB, solutions = 16)
 463899 24347     4861.0000     6     4862.0000     4861.0000   747616    0.02%
 463900 24346    infeasible           4862.0000     4861.0000   747618    0.02%
 463901 24345    infeasible           4862.0000     4861.0000   747621    0.02%
 463902 24344    infeasible           4862.0000     4861.0000   747622    0.02%
 463903 24343    infeasible           4862.0000     4861.0000   747622    0.02%
 463904 24342    infeasible           4862.0000     4861.0000   747622    0.02%
 463905 24341    infeasible           4862.0000     4861.0000   747623    0.02%
 463906 24340    infeasible           4862.0000     4861.0000   747624    0.02%
 463907 24339    infeasible           4862.0000     4861.0000   747625    0.02%
 463908 24338    infeasible           4862.0000     4861.0000   747625    0.02%
Elapsed time = 35.46 sec. (27669.13 ticks, tree = 7.41 MB, solutions = 16)
 522490 26507     4861.0000     5     4862.0000     4861.0000   849846    0.02%
 522491 26508     4861.0000     5     4862.0000     4861.0000   849847    0.02%
 522492 26509     4861.0000     5     4862.0000     4861.0000   849848    0.02%
 522493 26508    infeasible           4862.0000     4861.0000   849848    0.02%
 522494 26509     4861.0000     5     4862.0000     4861.0000   849849    0.02%
 522495 26510     4861.0000     5     4862.0000     4861.0000   849850    0.02%
 522496 26511     4861.0000     5     4862.0000     4861.0000   849851    0.02%
 522497 26512     4861.0000     5     4862.0000     4861.0000   849852    0.02%
 522498 26513     4861.0000     5     4862.0000     4861.0000   849853    0.02%
 522499 26514     4861.0000     5     4862.0000     4861.0000   849854    0.02%
Elapsed time = 40.35 sec. (31484.63 ticks, tree = 8.01 MB, solutions = 16)
 581206 28508     4861.0000     6     4862.0000     4861.0000   948524    0.02%
 581207 28509     4861.0000     6     4862.0000     4861.0000   948525    0.02%
 581208 28510     4861.0000     6     4862.0000     4861.0000   948526    0.02%
 581209 28509    infeasible           4862.0000     4861.0000   948529    0.02%
 581210 28508    infeasible           4862.0000     4861.0000   948529    0.02%
 581211 28509     4861.0000     6     4862.0000     4861.0000   948530    0.02%
 581212 28510     4861.0000     5     4862.0000     4861.0000   948532    0.02%
 581213 28511     4861.0000     5     4862.0000     4861.0000   948533    0.02%
 581214 28512     4861.0000     5     4862.0000     4861.0000   948534    0.02%
 581215 28513     4861.0000     6     4862.0000     4861.0000   948536    0.02%
Elapsed time = 45.30 sec. (35299.74 ticks, tree = 8.57 MB, solutions = 16)
 635983 30683    infeasible           4862.0000     4861.0000  1042080    0.02%
 635984 30682    infeasible           4862.0000     4861.0000  1042081    0.02%
 635985 30683     4861.0000     6     4862.0000     4861.0000  1042082    0.02%
 635986 30682    infeasible           4862.0000     4861.0000  1042084    0.02%
 635987 30681    infeasible           4862.0000     4861.0000  1042085    0.02%
 635988 30680    infeasible           4862.0000     4861.0000  1042088    0.02%
 635989 30679    infeasible           4862.0000     4861.0000  1042090    0.02%
 635990 30678    infeasible           4862.0000     4861.0000  1042095    0.02%
 635991 30677    infeasible           4862.0000     4861.0000  1042095    0.02%
 635992 30676    infeasible           4862.0000     4861.0000  1042098    0.02%
Elapsed time = 50.08 sec. (39115.42 ticks, tree = 9.18 MB, solutions = 16)
 698134 34361     4861.0000     6     4862.0000     4861.0000  1146982    0.02%
 698135 34362     4861.0000     5     4862.0000     4861.0000  1146983    0.02%
 698136 34363     4861.0000     5     4862.0000     4861.0000  1146984    0.02%
 698137 34364     4861.0000     5     4862.0000     4861.0000  1146985    0.02%
 698138 34365     4861.0000     5     4862.0000     4861.0000  1146986    0.02%
 698139 34366     4861.0000     5     4862.0000     4861.0000  1146987    0.02%
 698140 34367     4861.0000     5     4862.0000     4861.0000  1146988    0.02%
 698141 34368     4861.0000     5     4862.0000     4861.0000  1146989    0.02%
 698142 34369     4861.0000     5     4862.0000     4861.0000  1146990    0.02%
 698143 34370     4861.0000     5     4862.0000     4861.0000  1146991    0.02%
Elapsed time = 54.96 sec. (42930.41 ticks, tree = 11.11 MB, solutions = 16)
 758824 37962     4861.0000     5     4862.0000     4861.0000  1249380    0.02%
 758825 37963     4861.0000     5     4862.0000     4861.0000  1249381    0.02%
 758826 37964     4861.0000     5     4862.0000     4861.0000  1249382    0.02%
 758827 37963    infeasible           4862.0000     4861.0000  1249384    0.02%
 758828 37962    infeasible           4862.0000     4861.0000  1249385    0.02%
 758829 37962     4861.0000     7     4862.0000     4861.0000  1249387    0.02%
 758830 37963     4861.0000     6     4862.0000     4861.0000  1249390    0.02%
 758831 37962    infeasible           4862.0000     4861.0000  1249390    0.02%
 758832 37961    infeasible           4862.0000     4861.0000  1249391    0.02%
 758833 37960    infeasible           4862.0000     4861.0000  1249391    0.02%
Elapsed time = 59.86 sec. (46745.69 ticks, tree = 12.07 MB, solutions = 16)
 819973 40311    infeasible           4862.0000     4861.0000  1346218    0.02%
 819974 40312     4861.0000     6     4862.0000     4861.0000  1346220    0.02%
 819975 40313     4861.0000     5     4862.0000     4861.0000  1346221    0.02%
 819976 40312    infeasible           4862.0000     4861.0000  1346224    0.02%
 819977 40313     4861.0000     5     4862.0000     4861.0000  1346225    0.02%
 819978 40314     4861.0000     5     4862.0000     4861.0000  1346226    0.02%
 819979 40313    infeasible           4862.0000     4861.0000  1346227    0.02%
 819980 40312    infeasible           4862.0000     4861.0000  1346228    0.02%
 819981 40313     4861.0000     6     4862.0000     4861.0000  1346230    0.02%
 819982 40314     4861.0000     6     4862.0000     4861.0000  1346232    0.02%
Elapsed time = 64.78 sec. (50561.13 ticks, tree = 12.72 MB, solutions = 16)
 885166 43933    infeasible           4862.0000     4861.0000  1445601    0.02%
 885167 43932    infeasible           4862.0000     4861.0000  1445606    0.02%
 885168 43931    infeasible           4862.0000     4861.0000  1445607    0.02%
 885169 43930    infeasible           4862.0000     4861.0000  1445608    0.02%
 885170 43929    infeasible           4862.0000     4861.0000  1445609    0.02%
 885171 43928    infeasible           4862.0000     4861.0000  1445611    0.02%
 885172 43927    infeasible           4862.0000     4861.0000  1445613    0.02%
 885173 43926    infeasible           4862.0000     4861.0000  1445613    0.02%
 885174 43927     4861.0000     6     4862.0000     4861.0000  1445614    0.02%
 885175 43928     4861.0000     6     4862.0000     4861.0000  1445615    0.02%
Elapsed time = 69.70 sec. (54376.64 ticks, tree = 13.72 MB, solutions = 16)
 951729 44572    infeasible           4862.0000     4861.0000  1544885    0.02%
 951730 44571    infeasible           4862.0000     4861.0000  1544885    0.02%
 951731 44570    infeasible           4862.0000     4861.0000  1544887    0.02%
 951732 44569    infeasible           4862.0000     4861.0000  1544890    0.02%
 951733 44569     4861.0000     8     4862.0000     4861.0000  1544892    0.02%
 951734 44570     4861.0000     6     4862.0000     4861.0000  1544893    0.02%
 951735 44571     4861.0000     6     4862.0000     4861.0000  1544894    0.02%
 951736 44570    infeasible           4862.0000     4861.0000  1544895    0.02%
 951737 44569    infeasible           4862.0000     4861.0000  1544897    0.02%
 951738 44568    infeasible           4862.0000     4861.0000  1544902    0.02%
Elapsed time = 74.55 sec. (58191.94 ticks, tree = 13.90 MB, solutions = 16)
 1015761 46225    infeasible           4862.0000     4861.0000  1642798    0.02%
 1015762 46224    infeasible           4862.0000     4861.0000  1642798    0.02%
 1015763 46224     4861.0000     7     4862.0000     4861.0000  1642804    0.02%
 1015764 46225     4861.0000     5     4862.0000     4861.0000  1642805    0.02%
 1015765 46226     4861.0000     6     4862.0000     4861.0000  1642807    0.02%
 1015766 46225    infeasible           4862.0000     4861.0000  1642808    0.02%
 1015767 46225     4861.0000     8     4862.0000     4861.0000  1642812    0.02%
 1015768 46226     4861.0000     6     4862.0000     4861.0000  1642813    0.02%
 1015769 46225    infeasible           4862.0000     4861.0000  1642817    0.02%
 1015770 46225     4861.0000     7     4862.0000     4861.0000  1642820    0.02%
Elapsed time = 79.43 sec. (62007.23 ticks, tree = 14.36 MB, solutions = 16)
 1079401 48123    infeasible           4862.0000     4861.0000  1738535    0.02%
 1079402 48122    infeasible           4862.0000     4861.0000  1738537    0.02%
 1079403 48121    infeasible           4862.0000     4861.0000  1738540    0.02%
 1079404 48120    infeasible           4862.0000     4861.0000  1738543    0.02%
 1079405 48119    infeasible           4862.0000     4861.0000  1738543    0.02%
 1079406 48118    infeasible           4862.0000     4861.0000  1738546    0.02%
 1079407 48119     4861.0000     5     4862.0000     4861.0000  1738547    0.02%
 1079408 48119     4861.0000     7     4862.0000     4861.0000  1738549    0.02%
 1079409 48118    infeasible           4862.0000     4861.0000  1738552    0.02%
 1079410 48119     4861.0000     6     4862.0000     4861.0000  1738554    0.02%
Elapsed time = 84.28 sec. (65822.65 ticks, tree = 14.88 MB, solutions = 16)
 1139726 49855     4861.0000     4     4862.0000     4861.0000  1834699    0.02%
 1139727 49856     4861.0000     4     4862.0000     4861.0000  1834702    0.02%
 1139728 49857     4861.0000     4     4862.0000     4861.0000  1834703    0.02%
 1139729 49858     4861.0000     4     4862.0000     4861.0000  1834704    0.02%
 1139730 49857    infeasible           4862.0000     4861.0000  1834708    0.02%
 1139731 49858     4861.0000     3     4862.0000     4861.0000  1834709    0.02%
 1139732 49857    infeasible           4862.0000     4861.0000  1834714    0.02%
 1139733 49856    infeasible           4862.0000     4861.0000  1834715    0.02%
 1139734 49855    infeasible           4862.0000     4861.0000  1834721    0.02%
 1139735 49856     4861.0000     4     4862.0000     4861.0000  1834725    0.02%
Elapsed time = 89.19 sec. (69659.99 ticks, tree = 15.36 MB, solutions = 16)
 1194208 51216    infeasible           4862.0000     4861.0000  1919272    0.02%
 1194209 51215    infeasible           4862.0000     4861.0000  1919272    0.02%
 1194210 51214    infeasible           4862.0000     4861.0000  1919272    0.02%
 1194211 51213    infeasible           4862.0000     4861.0000  1919272    0.02%
 1194212 51214     4861.0000     6     4862.0000     4861.0000  1919273    0.02%
 1194213 51215     4861.0000     6     4862.0000     4861.0000  1919274    0.02%
 1194214 51216     4861.0000     5     4862.0000     4861.0000  1919276    0.02%
 1194215 51217     4861.0000     6     4862.0000     4861.0000  1919279    0.02%
 1194216 51218     4861.0000     6     4862.0000     4861.0000  1919280    0.02%
 1194217 51219     4861.0000     5     4862.0000     4861.0000  1919282    0.02%
Elapsed time = 94.00 sec. (73475.14 ticks, tree = 15.72 MB, solutions = 16)
 1257182 53458     4861.0000     6     4862.0000     4861.0000  2015079    0.02%
 1257183 53457    infeasible           4862.0000     4861.0000  2015079    0.02%
 1257184 53456    infeasible           4862.0000     4861.0000  2015082    0.02%
 1257185 53455    infeasible           4862.0000     4861.0000  2015083    0.02%
 1257186 53454    infeasible           4862.0000     4861.0000  2015085    0.02%
 1257187 53453    infeasible           4862.0000     4861.0000  2015087    0.02%
 1257188 53452    infeasible           4862.0000     4861.0000  2015089    0.02%
 1257189 53451    infeasible           4862.0000     4861.0000  2015096    0.02%
 1257190 53450    infeasible           4862.0000     4861.0000  2015101    0.02%
 1257191 53449    infeasible           4862.0000     4861.0000  2015105    0.02%
Elapsed time = 98.63 sec. (77296.89 ticks, tree = 16.29 MB, solutions = 16)

Root node processing (before b&c):
  Real time             =    0.01 sec. (5.62 ticks)
Sequential b&c:
  Real time             =   99.99 sec. (78358.14 ticks)
                          ------------
Total (root+branch&cut) =  100.00 sec. (78363.76 ticks)

Solution pool: 16 solutions saved.

MIP - Time limit exceeded, integer feasible:  Objective =  4.8620000000e+03
Current MIP best bound =  4.8610000000e+03 (gap = 1, 0.02%)
Solution time =  100.00 sec.  Iterations = 2043940  Nodes = 1274815 (54105)
Deterministic time = 78363.76 ticks  (783.64 ticks/sec)


Incumbent solution written to file '/tmp/tmpg924vJ.cplex.sol'.
